NAME nitrogen cycle_srl_ilp
* Max problem is converted into Min one
ROWS
 N  OBJ
 L  constraint1_5410
 L  constraint1_7450
 L  constraint1_741
 L  constraint1_742
 L  constraint1_740
 L  constraint1_2940
 L  constraint2_5410
 L  constraint2_5411
 L  constraint2_5412
 L  constraint2_5413
 L  constraint2_7450
 L  constraint2_7451
 L  constraint2_7452
 L  constraint2_7453
 L  constraint2_740
 L  constraint2_741
 L  constraint2_742
 L  constraint2_743
 L  constraint2_2940
 L  constraint2_2941
 L  constraint2_2942
 L  constraint2_2943
COLUMNS
    MARKER    'MARKER'                 'INTORG'
    Z_541_0_0  OBJ       -6.2586168599586029e-04
    Z_541_0_0  constraint1_5410  1
    Z_541_0_0  constraint2_5410  1
    Z_541_0_1  OBJ       -8.1583045426088013e-04
    Z_541_0_1  constraint1_5410  1
    Z_541_0_1  constraint2_5411  1
    Z_541_0_2  OBJ       -7.0736144387196742e-01
    Z_541_0_2  constraint1_5410  1
    Z_541_0_2  constraint2_5412  1
    Z_541_0_3  OBJ       -4.1769396210175153e-04
    Z_541_0_3  constraint1_5410  1
    Z_541_0_3  constraint2_5413  1
    Z_541_0_4  OBJ       -1.9077917002567424e-01
    Z_541_0_4  constraint1_5410  1
    Z_745_0_0  OBJ       -1.5558587607571948e-04
    Z_745_0_0  constraint1_7450  1
    Z_745_0_0  constraint2_7450  1
    Z_745_0_1  OBJ       -2.9838470388340579e-03
    Z_745_0_1  constraint1_7450  1
    Z_745_0_1  constraint2_7451  1
    Z_745_0_2  OBJ       -7.3858539821540037e-01
    Z_745_0_2  constraint1_7450  1
    Z_745_0_2  constraint2_7452  1
    Z_745_0_3  OBJ       -2.3323722685566749e-04
    Z_745_0_3  constraint1_7450  1
    Z_745_0_3  constraint2_7453  1
    Z_745_0_4  OBJ       -1.5804193164283428e-01
    Z_745_0_4  constraint1_7450  1
    Z_74_1_0  OBJ       -5.0777259537384829e-04
    Z_74_1_0  constraint1_741  1
    Z_74_1_0  constraint2_740  1
    Z_74_1_1  OBJ       -6.1726046961741127e-04
    Z_74_1_1  constraint1_741  1
    Z_74_1_1  constraint2_741  1
    Z_74_1_2  OBJ       -6.0217243229472839e-01
    Z_74_1_2  constraint1_741  1
    Z_74_1_2  constraint2_742  1
    Z_74_1_3  OBJ       -5.3328102607869707e-04
    Z_74_1_3  constraint1_741  1
    Z_74_1_3  constraint2_743  1
    Z_74_1_4  OBJ       -2.9616925361420177e-01
    Z_74_1_4  constraint1_741  1
    Z_74_2_0  OBJ       -5.8402035992604046e-02
    Z_74_2_0  constraint1_742  1
    Z_74_2_0  constraint2_740  1
    Z_74_2_1  OBJ       -8.7349188181221088e-02
    Z_74_2_1  constraint1_742  1
    Z_74_2_1  constraint2_741  1
    Z_74_2_2  OBJ       -3.1231093463140848e-03
    Z_74_2_2  constraint1_742  1
    Z_74_2_2  constraint2_742  1
    Z_74_2_3  OBJ       -4.8742381486353792e-01
    Z_74_2_3  constraint1_742  1
    Z_74_2_3  constraint2_743  1
    Z_74_2_4  OBJ       -2.6370185161632292e-01
    Z_74_2_4  constraint1_742  1
    Z_74_0_0  OBJ       -5.0777259537384829e-04
    Z_74_0_0  constraint1_740  1
    Z_74_0_0  constraint2_740  1
    Z_74_0_1  OBJ       -6.1726046961741127e-04
    Z_74_0_1  constraint1_740  1
    Z_74_0_1  constraint2_741  1
    Z_74_0_2  OBJ       -6.0217243229472839e-01
    Z_74_0_2  constraint1_740  1
    Z_74_0_2  constraint2_742  1
    Z_74_0_3  OBJ       -5.3328102607869707e-04
    Z_74_0_3  constraint1_740  1
    Z_74_0_3  constraint2_743  1
    Z_74_0_4  OBJ       -2.9616925361420177e-01
    Z_74_0_4  constraint1_740  1
    Z_294_0_0  OBJ       -8.1698495874115156e-04
    Z_294_0_0  constraint1_2940  1
    Z_294_0_0  constraint2_2940  1
    Z_294_0_1  OBJ       -6.7702943119507628e-04
    Z_294_0_1  constraint1_2940  1
    Z_294_0_1  constraint2_2941  1
    Z_294_0_2  OBJ       -5.7074570180428064e-01
    Z_294_0_2  constraint1_2940  1
    Z_294_0_2  constraint2_2942  1
    Z_294_0_3  OBJ       -1.4070392325418804e-03
    Z_294_0_3  constraint1_2940  1
    Z_294_0_3  constraint2_2943  1
    Z_294_0_4  OBJ       -3.2635324457324133e-01
    Z_294_0_4  constraint1_2940  1
    MARKER    'MARKER'                 'INTEND'
RHS
    RHS1      constraint1_5410  1
    RHS1      constraint1_7450  1
    RHS1      constraint1_741  1
    RHS1      constraint1_742  1
    RHS1      constraint1_740  1
    RHS1      constraint1_2940  1
    RHS1      constraint2_5410  1
    RHS1      constraint2_5411  1
    RHS1      constraint2_5412  1
    RHS1      constraint2_5413  1
    RHS1      constraint2_7450  1
    RHS1      constraint2_7451  1
    RHS1      constraint2_7452  1
    RHS1      constraint2_7453  1
    RHS1      constraint2_740  1
    RHS1      constraint2_741  1
    RHS1      constraint2_742  1
    RHS1      constraint2_743  1
    RHS1      constraint2_2940  1
    RHS1      constraint2_2941  1
    RHS1      constraint2_2942  1
    RHS1      constraint2_2943  1
BOUNDS
 UP BND1      Z_541_0_0  1
 UP BND1      Z_541_0_1  1
 UP BND1      Z_541_0_2  1
 UP BND1      Z_541_0_3  1
 UP BND1      Z_541_0_4  1
 UP BND1      Z_745_0_0  1
 UP BND1      Z_745_0_1  1
 UP BND1      Z_745_0_2  1
 UP BND1      Z_745_0_3  1
 UP BND1      Z_745_0_4  1
 UP BND1      Z_74_1_0  1
 UP BND1      Z_74_1_1  1
 UP BND1      Z_74_1_2  1
 UP BND1      Z_74_1_3  1
 UP BND1      Z_74_1_4  1
 UP BND1      Z_74_2_0  1
 UP BND1      Z_74_2_1  1
 UP BND1      Z_74_2_2  1
 UP BND1      Z_74_2_3  1
 UP BND1      Z_74_2_4  1
 UP BND1      Z_74_0_0  1
 UP BND1      Z_74_0_1  1
 UP BND1      Z_74_0_2  1
 UP BND1      Z_74_0_3  1
 UP BND1      Z_74_0_4  1
 UP BND1      Z_294_0_0  1
 UP BND1      Z_294_0_1  1
 UP BND1      Z_294_0_2  1
 UP BND1      Z_294_0_3  1
 UP BND1      Z_294_0_4  1
ENDATA
